succeed=True
config:eval_tsp="2023-04-15 09:07:15"
config:arch=arch5
config:num_train_worker=3
config:num_sample_worker=1
config:sample_type=khop2
config:root_path=/nvme/graph-learning-copy/samgraph/
config:dataset=com-friendster
config:pipeline=False
config:cache_policy=coll_cache_asymm_link
config:cache_percentage=0.14
config:num_epoch=4
config:batch_size=2000
config:num_hidden=256
config:max_sampling_jobs=1
config:max_copying_jobs=1
config:barriered_epoch=1
config:presample_epoch=2
config:omp_thread_num=40
config:unsupervised=True
config:amp=True
config:rolling=0
config:fanout=[25, 10]
config:lr=0.003
config:dropout=0.5
config:single_gpu=False
config:max_num_step=1000
config:validate_configs=False
config:report_acc=0
config:dataset_path=/nvme/graph-learning-copy/samgraph/com-friendster
config:torch_thread_num=13
config:train_workers=['cuda:0', 'cuda:1', 'cuda:2']
config:sample_workers=['cuda:3']
config:num_fanout=2
config:num_layer=2
config:_run_mode=RunMode.FGNN
config:_log_level=warn
config:_profile_level=3
config:_empty_feat=25
config:_arch=5
config:_sample_type=5
config:_cache_policy=13
test_result:init:input_scale_factor=1.1
0 :  {link #0 : 1}, {link #1 : 2},
1 :  {link #0 : 2}, {link #1 : 0},
2 :  {link #0 : 0}, {link #1 : 1},
0 :  {link #0 : 1}, {link #1 : 2},
1 :  {link #0 : 2}, {link #1 : 0},
2 :  {link #0 : 0}, {link #1 : 1},
0 : local 72, cpu 8 {link #0 : g1 36}, {link #1 : g2 36},
1 : local 72, cpu 8 {link #0 : g2 36}, {link #1 : g0 36},
2 : local 72, cpu 8 {link #0 : g0 36}, {link #1 : g1 36},
0 : local 72, cpu 8 {link #0 : g1 36}, {link #1 : g2 36},
1 : local 72, cpu 8 {link #0 : g2 36}, {link #1 : g0 36},
2 : local 72, cpu 8 {link #0 : g0 36}, {link #1 : g1 36},
0 :  {link #0 : 1}, {link #1 : 2},
1 :  {link #0 : 2}, {link #1 : 0},
2 :  {link #0 : 0}, {link #1 : 1},
0 : local 72, cpu 8 {link #0 : g1 36}, {link #1 : g2 36},
1 : local 72, cpu 8 {link #0 : g2 36}, {link #1 : g0 36},
2 : local 72, cpu 8 {link #0 : g0 36}, {link #1 : g1 36},
Set parameter WLSAccessID
Set parameter WLSSecret
Set parameter LicenseID
Set parameter TimeLimit to value 200
Set parameter MIPGap to value 0.05
Set parameter LogFile to value "cppsolver.log"
Set parameter Threads to value 40
Academic license - for non-commercial use only - registered to xiaoniu.sxn@sjtu.edu.cn
Gurobi Optimizer version 9.5.1 build v9.5.1rc2 (linux64)
Thread count: 40 physical cores, 80 logical processors, using up to 40 threads
Academic license - for non-commercial use only - registered to xiaoniu.sxn@sjtu.edu.cn
Optimize a model with 10686 rows, 5084 columns and 38115 nonzeros
Model fingerprint: 0xf25ab45f
Variable types: 4 continuous, 5080 integer (5080 binary)
Coefficient statistics:
  Matrix range     [8e-09, 1e+04]
  Objective range  [1e+00, 1e+00]
  Bounds range     [1e+00, 1e+00]
  RHS range        [1e+00, 2e+04]
Warning: Model contains large matrix coefficient range
         Consider reformulating model or setting NumericFocus parameter
         to avoid numerical issues.
Found heuristic solution: objective 88597.773837
Presolve removed 6097 rows and 2 columns
Presolve time: 0.06s
Presolved: 4589 rows, 5082 columns, 23635 nonzeros
Variable types: 1 continuous, 5081 integer (5080 binary)

Root relaxation: objective 9.868699e+03, 5248 iterations, 0.08 seconds (0.07 work units)

    Nodes    |    Current Node    |     Objective Bounds      |     Work
 Expl Unexpl |  Obj  Depth IntInf | Incumbent    BestBd   Gap | It/Node Time

     0     0 9868.69928    0   27 88597.7738 9868.69928  88.9%     -    0s
H    0     0                    10010.263208 9868.69928  1.41%     -    0s

Explored 1 nodes (6438 simplex iterations) in 0.23 seconds (0.18 work units)
Thread count was 40 (of 80 available processors)

Solution count 2: 10010.3 88597.8 

Optimal solution found (tolerance 5.00e-02)
Best objective 1.001026320817e+04, best bound 9.868699284073e+03, gap 1.4142%
coll_cache:optimal_local_rate=0.47731,0.488135,0.488123,
coll_cache:optimal_remote_rate=0.462259,0.451434,0.451446,
coll_cache:optimal_cpu_rate=0.060431,0.060431,0.060431,
z=10010.3
test_result:init:feat_nbytes=67182966784
test_result:init:cache_nbytes=9472797696
test_result:init:feat_nbytes=67182966784
test_result:init:cache_nbytes=9472797696
test_result:init:feat_nbytes=67182966784
test_result:init:cache_nbytes=9472797696
[Train  Worker 2/3] Started with PID 38844(Tesla V100-SXM2-16GB)
[Train  Worker 2] run train for 4 epochs with 1002 steps
[Train  Worker 1/3] Started with PID 38841(Tesla V100-SXM2-16GB)
[Train  Worker 1] run train for 4 epochs with 1002 steps
[CUDA] cuda0: usage: 15.58 GB
[SAM] cuda0 data alloc        : 0.00 Bytes
[SAM] cuda0 workspace         : 2.70 GB
[SAM] cuda0 workspace reserve : 1.33 GB
[SAM] cuda0 total             : 2.70 GB
[Train  Worker 0/3] Started with PID 38839(Tesla V100-SXM2-16GB)
[Train  Worker 0] run train for 4 epochs with 1002 steps
Epoch 00000 | Epoch Time 8.8795 | Total Train Time(Profiler) 4.9698 | Copy Time 3.8728
[CUDA] cuda0: usage: 15.58 GB
[SAM] cuda0 data alloc        : 0.00 Bytes
[SAM] cuda0 workspace         : 2.70 GB
[SAM] cuda0 workspace reserve : 1.33 GB
[SAM] cuda0 total             : 2.70 GB
Epoch 00001 | Epoch Time 7.0084 | Total Train Time(Profiler) 3.1818 | Copy Time 3.7965
[CUDA] cuda0: usage: 15.58 GB
[SAM] cuda0 data alloc        : 0.00 Bytes
[SAM] cuda0 workspace         : 2.70 GB
[SAM] cuda0 workspace reserve : 1.33 GB
[SAM] cuda0 total             : 2.70 GB
Epoch 00002 | Epoch Time 7.0830 | Total Train Time(Profiler) 3.2302 | Copy Time 3.8191
[CUDA] cuda0: usage: 15.58 GB
[SAM] cuda0 data alloc        : 0.00 Bytes
[SAM] cuda0 workspace         : 2.70 GB
[SAM] cuda0 workspace reserve : 1.33 GB
[SAM] cuda0 total             : 2.70 GB
Epoch 00003 | Epoch Time 7.0641 | Total Train Time(Profiler) 3.2278 | Copy Time 3.8015
[Train  Worker 1] Avg Epoch Time 7.0516 | Train Total Time(Profiler) 3.2038 | Copy Time 3.8154
[Train  Worker 0] Avg Epoch Time 7.0518 | Train Total Time(Profiler) 3.2132 | Copy Time 3.8057
[Train  Worker 2] Avg Epoch Time 7.0516 | Train Total Time(Profiler) 3.2086 | Copy Time 3.8103
    [Step(average) Profiler Level 1 E3 S1001]
        L1  sample           0.005501 | send           0.001271
        L1  recv             0.001436 | copy           0.011409 | convert time 0.000581 | train  0.009025
        L1  feature nbytes    1.20 GB | label nbytes   15.62 KB
        L1  id nbytes      0.00 Bytes | graph nbytes   10.76 MB
        L1  miss nbytes      79.00 MB | remote nbytes  558.84 MB
        L1  num nodes         1262433 | num samples     1406715
    [Step(average) Profiler Level 2 E3 S1001]
        L2  shuffle     0.000080 | core sample  0.001996 | id remap        0.003236
        L2  graph copy  0.000003 | id copy      0.000000 | cache feat copy 0.009969
        L2  last layer sample time 0.000307 | size 57481.593344
    [Step(average) Profiler Level 3 E3 S1001]
        L3  khop sample coo  0.001685 | khop sort coo      0.000000 | khop count edge     0.000037 | khop compact edge 0.000221
        L3  walk sample coo  0.000000 | walk topk total    0.000000 | walk topk step1     0.000000 | walk topk step2   0.000000
        L3  walk topk step3  0.000000 | walk topk step4    0.000000 | walk topk step5     0.000000
        L3  walk topk step6  0.000000 | walk topk step7    0.000000
        L3  remap unique     0.000179 | remap populate     0.002755 | remap mapnode       0.000000 | remap mapedge     0.000494
        L3  cache get_index  0.000976 | cache copy_index   0.000000 | cache extract_miss  0.000000
        L3  cache copy_miss  0.000000 | cache combine_miss 0.006779 | cache combine cache 0.001689 | cache combine remote 0.007123
        L3  label extract  0.000027
    [Init Profiler Level 1]
        L1  init    14.8505 | sampler init    66.0276 | trainer init 0.0000
    [Init Profiler Level 2]
        L2  load ds        17.1527 | init queue          42.9778
        L2  presample      18.9796 | build interal ds     1.7651
        L2  build cache     0.0000
    [Init Profiler Level 3]
        L3  load dataset: mmap    14.8476 | copy         2.3051
        L3  dist queue: alloc      0.0008 | pin         42.9770 | push     0.0000
        L3  presample: init        0.1891
        L3  presample: sample     11.0097 | copy         0.7940
        L3  presample: count       6.5183 | sort         0.2107
        L3  presample: reset       0.0019 | get rank     0.0244
        L3  internal: cuda ctx     1.5156 | cuda stream     0.2429
[Sample Worker 0/1] Started with PID 38837(Tesla V100-SXM2-16GB)
[Sample Worker 0] run sample for 4 epochs with 1002 steps
[Sample Worker 0] Avg Sample Total Time 6.7965 | Sampler Total Time(Profiler) 6.7854
test_result:sample_time=5.5121
test_result:get_cache_miss_index_time=0.0000
test_result:enqueue_samples_time=1.2732
test_result:epoch_time:sample_total=6.7965
[CUDA] cuda0: usage: 15.58 GB
[SAM] cuda0 data alloc        : 0.00 Bytes
[SAM] cuda0 workspace         : 2.70 GB
[SAM] cuda0 workspace reserve : 1.33 GB
[SAM] cuda0 total             : 2.70 GB
    [Step(average) Profiler Level 1 E3 S1001]
        L1  sample           0.005501 | send           0.001271
        L1  recv             0.001436 | copy           0.011409 | convert time 0.000581 | train  0.009025
        L1  feature nbytes    1.20 GB | label nbytes   15.62 KB
        L1  id nbytes      0.00 Bytes | graph nbytes   10.76 MB
        L1  miss nbytes      79.00 MB | remote nbytes  558.84 MB
        L1  num nodes         1262433 | num samples     1406715
        L1  seq duration     0.000000 | refresh duration 258635603891673578032499465471040368692917689553174382624255442899804235057945098996725259703462428934340533923706672323218496852159962373383961948407597700743168.000000
    [Step(average) Profiler Level 2 E3 S1001]
        L2  shuffle     0.000080 | core sample  0.001996 | id remap        0.003236
        L2  graph copy  0.000003 | id copy      0.000000 | cache feat copy 0.009969
        L2  last layer sample time 0.000307 | size 57481.593344
    [Step(average) Profiler Level 3 E3 S1001]
        L3  khop sample coo  0.001685 | khop sort coo      0.000000 | khop count edge     0.000037 | khop compact edge 0.000221
        L3  walk sample coo  0.000000 | walk topk total    0.000000 | walk topk step1     0.000000 | walk topk step2   0.000000
        L3  walk topk step3  0.000000 | walk topk step4    0.000000 | walk topk step5     0.000000
        L3  walk topk step6  0.000000 | walk topk step7    0.000000
        L3  remap unique     0.000179 | remap populate     0.002755 | remap mapnode       0.000000 | remap mapedge     0.000494
        L3  cache get_index  0.000976 | cache copy_index   0.000000 | cache extract_miss  0.000000
        L3  cache copy_miss  0.000000 | cache combine_miss 0.006779 | cache combine cache 0.001689 | cache combine remote 0.007123
        L3  label extract  0.000027
    [Step(max) Profiler Level 1 E3 S1001]
        L1  sample           0.083489 | send           0.001479
        L1  recv             0.015904 | copy           0.025191 | convert time 0.002258 | train  0.013615
        L1  feature nbytes    1.22 GB | label nbytes   15.62 KB
        L1  id nbytes      0.00 Bytes | graph nbytes   10.90 MB
        L1  miss nbytes      81.50 MB | remote nbytes  575.57 MB
        L1  num nodes         1277364 | num samples     1424844
    [Step(max) Profiler Level 2 E3 S1001]
        L2  shuffle     0.077782 | core sample  0.002153 | id remap        0.003577
        L2  graph copy  0.000024 | id copy      0.000000 | cache feat copy 0.023778
        L2  last layer sample time 0.000526 | size 58058.000000
    [Step(max) Profiler Level 3 E3 S1001]
        L3  khop sample coo  0.001806 | khop sort coo      0.000000 | khop count edge     0.000129 | khop compact edge 0.000253
        L3  walk sample coo  0.000000 | walk topk total    0.000000 | walk topk step1     0.000000 | walk topk step2   0.000000
        L3  walk topk step3  0.000000 | walk topk step4    0.000000 | walk topk step5     0.000000
        L3  walk topk step6  0.000000 | walk topk step7    0.000000
        L3  remap unique     0.000274 | remap populate     0.003092 | remap mapnode       0.000000 | remap mapedge     0.000730
        L3  cache get_index  0.001323 | cache copy_index   0.000000 | cache extract_miss  0.000000
        L3  cache copy_miss  0.000000 | cache combine_miss 0.007302 | cache combine cache 0.001842 | cache combine remote 0.008537
        L3  label extract  0.000211
    [Step(min) Profiler Level 1 E3 S1001]
        L1  sample           0.005317 | send           0.001253
        L1  recv             0.001394 | copy           0.011124 | convert time 0.000423 | train  0.008471
        L1  feature nbytes    1.19 GB | label nbytes   15.62 KB
        L1  id nbytes      0.00 Bytes | graph nbytes   10.62 MB
        L1  miss nbytes      76.61 MB | remote nbytes  545.00 MB
        L1  num nodes         1246117 | num samples     1387365
    [Step(min) Profiler Level 2 E3 S1001]
        L2  shuffle     0.000012 | core sample  0.001907 | id remap        0.003184
        L2  graph copy  0.000003 | id copy      0.000000 | cache feat copy 0.009270
        L2  last layer sample time 0.000296 | size 56859.000000
    [Step(min) Profiler Level 3 E3 S1001]
        L3  khop sample coo  0.001600 | khop sort coo      0.000000 | khop count edge     0.000035 | khop compact edge 0.000214
        L3  walk sample coo  0.000000 | walk topk total    0.000000 | walk topk step1     0.000000 | walk topk step2   0.000000
        L3  walk topk step3  0.000000 | walk topk step4    0.000000 | walk topk step5     0.000000
        L3  walk topk step6  0.000000 | walk topk step7    0.000000
        L3  remap unique     0.000173 | remap populate     0.002709 | remap mapnode       0.000000 | remap mapedge     0.000484
        L3  cache get_index  0.000948 | cache copy_index   0.000000 | cache extract_miss  0.000000
        L3  cache copy_miss  0.000000 | cache combine_miss 0.006558 | cache combine cache 0.001415 | cache combine remote 0.006361
        L3  label extract  0.000015
    [Init Profiler Level 1]
        L1  init    14.8505 | sampler init     0.0000 | trainer init 78.6754
    [Init Profiler Level 2]
        L2  load ds        14.8476 | init queue          42.9437
        L2  presample       0.0000 | build interal ds     1.4614
        L2  build cache    34.2704
    [Init Profiler Level 3]
        L3  load dataset: mmap    14.8476 | copy         0.0000
        L3  dist queue: alloc      0.0008 | pin         42.9429 | push     0.0000
        L3  presample: init        0.0000
        L3  presample: sample      0.0000 | copy         0.0000
        L3  presample: count       0.0000 | sort         0.0000
        L3  presample: reset       0.0000 | get rank     0.0000
        L3  internal: cuda ctx     1.4613 | cuda stream     0.0001
|===========================================================================|
|                  PyTorch CUDA memory summary, device ID 0                 |
|---------------------------------------------------------------------------|
|            CUDA OOMs: 0            |        cudaMalloc retries: 0         |
|===========================================================================|
|        Metric         | Cur Usage  | Peak Usage | Tot Alloc  | Tot Freed  |
|---------------------------------------------------------------------------|
| Allocated memory      |   17740 KB |  779347 KB |    2018 GB |    2018 GB |
|       from large pool |   12873 KB |  777920 KB |    2006 GB |    2006 GB |
|       from small pool |    4867 KB |    6628 KB |      12 GB |      12 GB |
|---------------------------------------------------------------------------|
| Active memory         |   17741 KB |  779347 KB |    2018 GB |    2018 GB |
|       from large pool |   12873 KB |  777920 KB |    2006 GB |    2006 GB |
|       from small pool |    4868 KB |    6628 KB |      12 GB |      12 GB |
|---------------------------------------------------------------------------|
| GPU reserved memory   |     772 MB |     772 MB |     772 MB |       0 B  |
|       from large pool |     764 MB |     764 MB |     764 MB |       0 B  |
|       from small pool |       8 MB |       8 MB |       8 MB |       0 B  |
|---------------------------------------------------------------------------|
| Non-releasable memory |   21171 KB |  683823 KB |    1940 GB |    1940 GB |
|       from large pool |   19895 KB |  681947 KB |    1925 GB |    1925 GB |
|       from small pool |    1276 KB |    3116 KB |      15 GB |      15 GB |
|---------------------------------------------------------------------------|
| Allocations           |      39    |      56    |  183068    |  183029    |
|       from large pool |       3    |      14    |   65464    |   65461    |
|       from small pool |      36    |      45    |  117604    |  117568    |
|---------------------------------------------------------------------------|
| Active allocs         |      40    |      56    |  183068    |  183028    |
|       from large pool |       3    |      14    |   65464    |   65461    |
|       from small pool |      37    |      45    |  117604    |  117567    |
|---------------------------------------------------------------------------|
| GPU reserved segments |      10    |      10    |      10    |       0    |
|       from large pool |       6    |       6    |       6    |       0    |
|       from small pool |       4    |       4    |       4    |       0    |
|---------------------------------------------------------------------------|
| Non-releasable allocs |      12    |      24    |   80458    |   80446    |
|       from large pool |       2    |       9    |   42079    |   42077    |
|       from small pool |      10    |      18    |   38379    |   38369    |
|---------------------------------------------------------------------------|
| Oversize allocations  |       0    |       0    |       0    |       0    |
|---------------------------------------------------------------------------|
| Oversize GPU segments |       0    |       0    |       0    |       0    |
|===========================================================================|

test_result:epoch_time:copy_time=3.8057
test_result:convert_time=0.2002
test_result:train_time=3.0131
test_result:epoch_time:train_total=3.2132
test_result:cache_percentage=0.1400
test_result:cache_hit_rate=1.0000
test_result:run_time=57.2201

